Route #1: 28 40 5 12 9 38 22 50 23 10
Route #2: 46 8 51 14 44 17 43
Route #3: 42 29 37 7 15 18 19
Route #4: 32 49 33 11 54 30 34 55 20 31 2
Route #5: 25 53 6 24 41 45
Route #6: 52 16 35 21 26 4 39 47
Route #7: 3 13 36 48 1 27
Cost 740.564263926891